NAME: instance_321
TYPE: TSP
DIMENSION: 20
EDGE_WEIGHT_TYPE: EUC_2D
NODE_COORD_SECTION
0 66.94 31.80
1 40.94 42.88
2 77.56 18.88
3 58.99 94.54
4 32.45 35.62
5 28.32 21.67
6 28.91 52.25
7 82.43 12.03
8 49.02 63.51
9 13.06 99.24
10 66.16 65.59
11 50.73 57.31
12 54.67 19.77
13 85.49 76.97
14 32.08 63.82
15 75.43 22.58
16 41.91 35.29
17 33.95 31.23
18 3.69 79.19
19 82.28 77.15
EOF
